* ENCODING=ISO-8859-1
NAME          CPLEX
ROWS
 N  obj1    
 G  c1      
 G  c2      
 G  c3      
 G  c4      
 G  c5      
 G  c6      
 G  c7      
 G  c8      
 G  c9      
 G  c10     
 G  c11     
 G  c12     
 G  c13     
 G  c14     
 G  c15     
 G  c16     
 G  c17     
 G  c18     
 G  c19     
 G  c20     
 G  c21     
 G  c22     
 G  c23     
 G  c24     
 G  c25     
 G  c26     
 G  c27     
 G  c28     
 G  c29     
 G  c30     
 G  c31     
 G  c32     
 G  c33     
 G  c34     
 G  c35     
 G  c36     
 G  c37     
 G  c38     
 G  c39     
 G  c40     
 G  c41     
 G  c42     
 G  c43     
 G  c44     
 G  c45     
 G  c46     
 G  c47     
 G  c48     
 G  c49     
 G  c50     
 G  c51     
 G  c52     
 G  c53     
 G  c54     
 G  c55     
 G  c56     
 G  c57     
 G  c58     
 G  c59     
 G  c60     
COLUMNS
    MARK0000  'MARKER'                 'INTORG'
    x1        obj1                            1
    x1        c23                           591
    x1        c26                           452
    x1        c33                           863
    x1        c34                           937
    x1        c38                           883
    x1        c40                           209
    x2        obj1                            1
    x2        c13                           101
    x2        c16                           300
    x2        c39                           885
    x2        c51                           770
    x2        c53                           404
    x3        obj1                            1
    x3        c1                            349
    x3        c2                            498
    x3        c12                           306
    x3        c19                           118
    x3        c46                           801
    x3        c60                           237
    x4        obj1                            1
    x4        c19                           977
    x4        c20                           859
    x4        c24                           391
    x4        c59                           305
    x5        obj1                            1
    x5        c6                            745
    x5        c49                           405
    x6        obj1                            1
    x6        c2                            938
    x6        c3                            626
    x6        c17                           567
    x6        c24                           950
    x7        obj1                            1
    x7        c28                           267
    x7        c35                           388
    x7        c40                           187
    x7        c41                           615
    x7        c44                           128
    x8        obj1                            1
    x8        c16                           105
    x8        c26                           535
    x8        c30                           333
    x8        c37                           141
    x8        c42                           345
    x9        obj1                            1
    x9        c12                           242
    x9        c15                           461
    x9        c18                           597
    x9        c20                           207
    x9        c25                           114
    x9        c29                           850
    x9        c50                           716
    x9        c59                           112
    x10       obj1                            1
    x10       c8                            433
    x10       c29                           320
    x10       c51                           918
    x11       obj1                            1
    x11       c8                            243
    x11       c12                           222
    x11       c45                           784
    x11       c49                           334
    x12       obj1                            1
    x12       c18                           685
    x12       c29                           955
    x12       c37                           466
    x12       c38                           792
    x12       c43                           546
    x12       c53                           646
    x12       c57                           950
    x12       c60                           270
    x13       obj1                            1
    x13       c5                            216
    x13       c19                           174
    x13       c34                           207
    x13       c36                           791
    x13       c38                           809
    x13       c47                           721
    x14       obj1                            1
    x14       c9                            771
    x14       c30                           175
    x14       c39                           366
    x14       c42                           698
    x14       c45                           968
    x15       obj1                            1
    x15       c12                           472
    x15       c54                           290
    x15       c59                           297
    x16       obj1                            1
    x16       c21                           697
    x16       c34                           887
    x16       c43                           661
    x16       c51                           632
    x16       c57                           589
    x17       obj1                            1
    x17       c6                            313
    x17       c11                           307
    x17       c40                           674
    x17       c58                           887
    x17       c60                           830
    x18       obj1                            1
    x18       c7                            122
    x18       c22                           430
    x18       c38                           249
    x18       c53                           687
    x19       obj1                            1
    x19       c25                           403
    x19       c28                           748
    x19       c32                           458
    x19       c34                           427
    x19       c52                           119
    x19       c54                           683
    x20       obj1                            1
    x20       c19                           696
    x20       c22                           233
    x20       c32                           532
    x20       c37                           218
    x20       c44                           390
    x20       c48                           771
    x20       c52                           405
    x20       c56                           178
    x21       obj1                            1
    x21       c6                            467
    x21       c12                           885
    x21       c35                           455
    x21       c36                           156
    x22       obj1                            1
    x22       c1                            599
    x22       c17                           447
    x22       c26                           252
    x22       c27                           930
    x22       c49                           603
    x22       c51                           224
    x22       c53                           257
    x23       obj1                            1
    x23       c16                           981
    x23       c27                           834
    x23       c37                           625
    x23       c56                           942
    x24       obj1                            1
    x24       c7                            512
    x24       c31                           893
    x24       c36                           697
    x24       c37                           362
    x24       c40                           323
    x24       c43                           322
    x24       c44                           678
    x24       c58                           531
    x25       obj1                            1
    x25       c10                           806
    x25       c12                           724
    x25       c13                           369
    x25       c18                           272
    x25       c28                           490
    x25       c34                           100
    x25       c44                           172
    x25       c54                           503
    x26       obj1                            1
    x26       c11                           823
    x26       c21                           665
    x26       c23                           903
    x26       c33                           583
    x26       c37                           807
    x26       c48                           657
    x26       c52                           458
    x27       obj1                            1
    x27       c3                            423
    x27       c17                           291
    x27       c22                           747
    x27       c25                           767
    x27       c30                           748
    x27       c41                           468
    x28       obj1                            1
    x28       c3                            253
    x28       c10                           965
    x28       c28                           644
    x28       c53                           994
    x28       c60                           795
    x29       obj1                            1
    x29       c22                           240
    x29       c33                           373
    x29       c34                           431
    x29       c40                           871
    x29       c46                           224
    x29       c51                           555
    x29       c54                           103
    x29       c55                           304
    x30       obj1                            1
    x30       c6                            439
    x30       c16                           528
    x30       c19                           788
    x30       c24                           220
    x30       c33                           378
    x31       obj1                            1
    x31       c5                            319
    x31       c15                           653
    x31       c33                           573
    x31       c51                           864
    x31       c58                           932
    x32       obj1                            1
    x32       c13                           361
    x32       c16                           256
    x32       c21                           690
    x32       c23                           672
    x32       c34                           168
    x32       c38                           239
    x32       c42                           859
    x32       c47                           122
    x32       c55                           853
    x33       obj1                            1
    x33       c5                            812
    x33       c6                            408
    x33       c7                            305
    x33       c29                           710
    x33       c40                           179
    x33       c45                           751
    x33       c54                           217
    x33       c56                           242
    x34       obj1                            1
    x34       c13                           581
    x34       c32                           725
    x34       c44                           872
    x35       obj1                            1
    x35       c4                            336
    x35       c6                            545
    x35       c16                           869
    x35       c31                           245
    x35       c46                           970
    x35       c52                           303
    x35       c54                           895
    x36       obj1                            1
    x36       c10                           285
    x36       c24                           782
    x36       c29                           278
    x36       c46                           436
    x37       obj1                            1
    x37       c19                           360
    x37       c28                           115
    x37       c44                           944
    x37       c54                           763
    x37       c60                           359
    x38       obj1                            1
    x38       c52                           836
    x39       obj1                            1
    x39       c6                            345
    x39       c7                            773
    x39       c8                            697
    x39       c36                           512
    x40       obj1                            1
    x40       c4                            710
    x40       c8                            576
    x40       c51                           801
    x40       c53                           151
    x41       obj1                            1
    x41       c12                           364
    x41       c27                           212
    x41       c37                           137
    x41       c56                           721
    x42       obj1                            1
    x42       c3                            533
    x42       c6                            654
    x42       c14                           433
    x42       c19                           260
    x42       c20                           503
    x42       c24                           980
    x42       c35                           296
    x42       c41                           694
    x42       c54                           331
    x43       obj1                            1
    x43       c7                            298
    x43       c14                           855
    x43       c58                          1000
    x44       obj1                            1
    x44       c1                            887
    x44       c4                            142
    x44       c16                           921
    x44       c31                           490
    x44       c39                           530
    x45       obj1                            1
    x45       c12                           337
    x45       c28                           686
    x45       c32                           667
    x45       c40                           265
    x45       c53                           275
    x45       c54                           600
    x46       obj1                            1
    x46       c9                            405
    x46       c21                           990
    x46       c31                           511
    x46       c33                           407
    x46       c36                           840
    x46       c38                           835
    x46       c43                           139
    x46       c48                           887
    x47       obj1                            1
    x47       c27                           450
    x47       c28                           477
    x47       c34                           598
    x47       c36                           871
    x47       c43                           621
    x47       c50                           581
    x48       obj1                            1
    x48       c8                            831
    x48       c36                           441
    x48       c48                           376
    x48       c53                           372
    x48       c58                           799
    x49       obj1                            1
    x49       c5                            784
    x49       c13                           348
    x49       c18                           537
    x49       c37                           164
    x49       c45                           529
    x50       obj1                            1
    x50       c9                            118
    x50       c24                           743
    x50       c25                           231
    x50       c28                           138
    x50       c30                           110
    x50       c37                           654
    x50       c39                           204
    x51       obj1                            1
    x51       c7                            688
    x51       c22                           920
    x51       c25                           328
    x51       c46                           560
    x51       c56                           454
    x51       c57                           519
    x51       c59                           428
    x52       obj1                            1
    x52       c6                            904
    x52       c38                           584
    x52       c44                           301
    x52       c50                           230
    x52       c58                           562
    x53       obj1                            1
    x53       c13                           405
    x53       c17                           886
    x53       c25                           882
    x53       c31                           346
    x53       c34                           224
    x53       c36                           436
    x54       obj1                            1
    x54       c7                            190
    x54       c11                           365
    x54       c19                           788
    x54       c39                           812
    x54       c44                           713
    x55       obj1                            1
    x55       c8                            759
    x55       c33                           229
    x55       c39                           202
    x55       c49                           237
    x55       c51                           406
    x55       c58                           914
    x55       c60                           772
    x56       obj1                            1
    x56       c21                           486
    x56       c28                           402
    x56       c29                           430
    x56       c60                           507
    x57       obj1                            1
    x57       c3                            880
    x57       c5                            395
    x57       c17                           529
    x57       c19                           272
    x57       c24                           412
    x57       c26                           205
    x57       c27                           287
    x57       c31                           417
    x57       c33                           804
    x57       c38                           995
    x57       c40                           830
    x57       c44                           701
    x57       c45                           476
    x57       c47                           784
    x57       c48                           901
    x58       obj1                            1
    x58       c5                            340
    x58       c17                           866
    x58       c31                           170
    x58       c33                           614
    x58       c43                           151
    x59       obj1                            1
    x59       c5                            979
    x59       c7                            933
    x59       c14                           936
    x59       c22                           993
    x59       c46                           176
    x59       c48                           727
    x59       c55                           646
    x59       c58                           693
    x60       obj1                            1
    x60       c2                            270
    x60       c5                            491
    x60       c10                           147
    x60       c15                           972
    x60       c21                           602
    x60       c29                           814
    x60       c38                           814
    x60       c48                           175
    x60       c58                           965
    MARK0001  'MARKER'                 'INTEND'
RHS
    rhs       c1                            918
    rhs       c2                            853
    rhs       c3                           1358
    rhs       c4                            594
    rhs       c5                           2168
    rhs       c6                           2410
    rhs       c7                           1911
    rhs       c8                           1770
    rhs       c9                            647
    rhs       c10                          1102
    rhs       c11                           748
    rhs       c12                          1776
    rhs       c13                          1083
    rhs       c14                          1112
    rhs       c15                          1043
    rhs       c16                          1980
    rhs       c17                          1793
    rhs       c18                          1046
    rhs       c19                          2217
    rhs       c20                           785
    rhs       c21                          2065
    rhs       c22                          1782
    rhs       c23                          1083
    rhs       c24                          2239
    rhs       c25                          1363
    rhs       c26                           722
    rhs       c27                          1357
    rhs       c28                          1984
    rhs       c29                          2179
    rhs       c30                           683
    rhs       c31                          1536
    rhs       c32                          1191
    rhs       c33                          2412
    rhs       c34                          1990
    rhs       c35                           570
    rhs       c36                          2372
    rhs       c37                          1787
    rhs       c38                          3100
    rhs       c39                          1500
    rhs       c40                          1769
    rhs       c41                           889
    rhs       c42                           951
    rhs       c43                          1220
    rhs       c44                          2450
    rhs       c45                          1754
    rhs       c46                          1584
    rhs       c47                           814
    rhs       c48                          2247
    rhs       c49                           790
    rhs       c50                           764
    rhs       c51                          2585
    rhs       c52                          1061
    rhs       c53                          1893
    rhs       c54                          2193
    rhs       c55                           902
    rhs       c56                          1269
    rhs       c57                          1029
    rhs       c58                          3642
    rhs       c59                           571
    rhs       c60                          1885
BOUNDS
 LI bnd       x1        0
 LI bnd       x2        0
 LI bnd       x3        0
 LI bnd       x4        0
 LI bnd       x5        0
 LI bnd       x6        0
 LI bnd       x7        0
 LI bnd       x8        0
 LI bnd       x9        0
 LI bnd       x10       0
 LI bnd       x11       0
 LI bnd       x12       0
 LI bnd       x13       0
 LI bnd       x14       0
 LI bnd       x15       0
 LI bnd       x16       0
 LI bnd       x17       0
 LI bnd       x18       0
 LI bnd       x19       0
 LI bnd       x20       0
 LI bnd       x21       0
 LI bnd       x22       0
 LI bnd       x23       0
 LI bnd       x24       0
 LI bnd       x25       0
 LI bnd       x26       0
 LI bnd       x27       0
 LI bnd       x28       0
 LI bnd       x29       0
 LI bnd       x30       0
 LI bnd       x31       0
 LI bnd       x32       0
 LI bnd       x33       0
 LI bnd       x34       0
 LI bnd       x35       0
 LI bnd       x36       0
 LI bnd       x37       0
 LI bnd       x38       0
 LI bnd       x39       0
 LI bnd       x40       0
 LI bnd       x41       0
 LI bnd       x42       0
 LI bnd       x43       0
 LI bnd       x44       0
 LI bnd       x45       0
 LI bnd       x46       0
 LI bnd       x47       0
 LI bnd       x48       0
 LI bnd       x49       0
 LI bnd       x50       0
 LI bnd       x51       0
 LI bnd       x52       0
 LI bnd       x53       0
 LI bnd       x54       0
 LI bnd       x55       0
 LI bnd       x56       0
 LI bnd       x57       0
 LI bnd       x58       0
 LI bnd       x59       0
 LI bnd       x60       0
ENDATA
